RT is False
Default write of storage_offers_DA.csv just to have a file (but constraint should be inactive)
Reading model...
...model read.
creating competitive generators file...
...competitive generators recorded.
Loading data...
.. day-ahead data with real-time VRE data read.
Compiling instance...
...instance created.
Creating Offer Mitigation (model will solve as dispatch if TRUE)...
NOTE: storage offers will not be mitigated
...storage offer mitigation file created
Converting model to MPEC...
...converted
NOTE: initial MIP solve with only storage competitive to get feasible solution
Solving...

Welcome to IBM(R) ILOG(R) CPLEX(R) Interactive Optimizer 12.8.0.0
  with Simplex, Mixed Integer & Barrier Optimizers
5725-A06 5725-A29 5724-Y48 5724-Y49 5724-Y54 5724-Y55 5655-Y21
Copyright IBM Corp. 1988, 2017.  All Rights Reserved.

Type 'help' for a list of available commands.
Type 'help' followed by a command name for more
information on commands.

CPLEX> Logfile 'cplex.log' closed.
Logfile 'C:\Users\llavi\Desktop\test919\logs\tmp928dgr23.cplex.log' open.
CPLEX> New value for parallel optimization mode: -1
CPLEX> New value for mixed integer optimality gap tolerance: 0.01
CPLEX> New value for integrality tolerance: 1e-09
CPLEX> New value for feasibility tolerance: 0.01
CPLEX> New value for deterministic time limit in ticks: 75000
CPLEX> Problem 'C:\Users\llavi\Desktop\test919\logs\tmpti8o64xe.pyomo.lp' read.
Read time = 0.28 sec. (13.50 ticks)
CPLEX> Problem name         : C:\Users\llavi\Desktop\test919\logs\tmpti8o64xe.pyomo.lp
Objective sense      : Maximize
Variables            :   54021  [Nneg: 1,  Box: 22008,  Free: 4464,
                                 Binary: 27548]
Objective nonzeros   :    8983
Linear constraints   :  123829  [Less: 41554,  Greater: 59512,  Equal: 22763]
  Nonzeros           :  300596
  RHS nonzeros       :   67904

Variables            : Min LB: -5000.000        Max UB: 1000000.       
Objective nonzeros   : Min   : 0.008333333      Max   : 828.4750       
Linear constraints   :
  Nonzeros           : Min   : 0.001000000      Max   : 1000000.       
  RHS nonzeros       : Min   : 0.008333333      Max   : 1000000.       
CPLEX> CPXPARAM_Simplex_Tolerances_Feasibility          0.01
CPXPARAM_Parallel                                -1
CPXPARAM_DetTimeLimit                            75000
CPXPARAM_MIP_Tolerances_MIPGap                   0.01
CPXPARAM_MIP_Tolerances_Integrality              1.0000000000000001e-09
Tried aggregator 3 times.
MIP Presolve eliminated 89277 rows and 19172 columns.
MIP Presolve added 3398 rows and 0 columns.
MIP Presolve modified 23910 coefficients.
Aggregator did 13056 substitutions.
Reduced MIP has 24894 rows, 21240 columns, and 71058 nonzeros.
Reduced MIP has 8406 binaries, 0 generals, 0 SOSs, and 0 indicators.
Presolve time = 0.27 sec. (167.19 ticks)
Probing fixed 380 vars, tightened 2832 bounds.
Probing time = 3.03 sec. (883.52 ticks)
Tried aggregator 2 times.
MIP Presolve eliminated 859 rows and 760 columns.
MIP Presolve modified 2193 coefficients.
Aggregator did 33 substitutions.
Reduced MIP has 24002 rows, 20447 columns, and 68481 nonzeros.
Reduced MIP has 8026 binaries, 0 generals, 0 SOSs, and 0 indicators.
Presolve time = 0.09 sec. (54.24 ticks)
Probing time = 0.08 sec. (16.15 ticks)
Clique table members: 6346.
MIP emphasis: balance optimality and feasibility.
MIP search method: dynamic search.
Parallel mode: opportunistic, using up to 4 threads.
Root relaxation solution time = 0.52 sec. (495.59 ticks)

        Nodes                                         Cuts/
   Node  Left     Objective  IInf  Best Integer    Best Bound    ItCnt     Gap

      0     0     2284.9773   709                   2284.9773     3183         
      0     0     2284.9773    15                    Cuts: 10     3189         
      0     0     2284.9773    12                     Cuts: 8     3193         
      0     0     2284.9773    12                     Cuts: 5     3196         
      0     3    infeasible                         2284.9773     3323         
Elapsed time = 14.63 sec. (5593.15 ticks, tree = 0.02 MB, solutions = 0)
*    83     9      integral     0     2263.2048     2263.2048     5667    0.00%
     91     8   -32141.7041     2     2263.2048     2263.2048     5480    0.00%

Flow cuts applied:  6
Gomory fractional cuts applied:  5

Root node processing (before b&c):
  Real time             =   14.47 sec. (5581.04 ticks)
Parallel b&c, 4 threads:
  Real time             =    0.67 sec. (316.77 ticks)
  Sync time (average)   =    0.09 sec.
  Wait time (average)   =    0.01 sec.
                          ------------
Total (root+branch&cut) =   15.14 sec. (5897.82 ticks)

Solution pool: 1 solution saved.

MIP - Integer optimal solution:  Objective =  2.2632048319e+03
Solution time =   15.14 sec.  Iterations = 6124  Nodes = 101
Deterministic time = 5897.97 ticks  (389.54 ticks/sec)

CPLEX> Incumbent solution written to file 'C:\Users\llavi\Desktop\test919\logs\tmpcmkznh7i.cplex.sol'.
CPLEX> NOTE: no warmstart specified for MIP iteration, default behavior is true
NOTE: resolving with all competitive generators using storage-only solution to warmstart
Solving...

Welcome to IBM(R) ILOG(R) CPLEX(R) Interactive Optimizer 12.8.0.0
  with Simplex, Mixed Integer & Barrier Optimizers
5725-A06 5725-A29 5724-Y48 5724-Y49 5724-Y54 5724-Y55 5655-Y21
Copyright IBM Corp. 1988, 2017.  All Rights Reserved.

Type 'help' for a list of available commands.
Type 'help' followed by a command name for more
information on commands.

CPLEX> Logfile 'cplex.log' closed.
Logfile 'C:\Users\llavi\Desktop\test919\logs\tmppfjdtha_.cplex.log' open.
CPLEX> New value for parallel optimization mode: -1
CPLEX> New value for mixed integer optimality gap tolerance: 0.01
CPLEX> New value for integrality tolerance: 1e-09
CPLEX> New value for feasibility tolerance: 0.01
CPLEX> New value for deterministic time limit in ticks: 75000
CPLEX> Problem 'C:\Users\llavi\Desktop\test919\logs\tmp5aamp04v.pyomo.lp' read.
Read time = 0.30 sec. (13.52 ticks)
CPLEX> MIP start file 'C:\Users\llavi\Desktop\test919\logs\tmpbh63cbbs.cplex.mst' read.
CPLEX> Problem name         : C:\Users\llavi\Desktop\test919\logs\tmp5aamp04v.pyomo.lp
Objective sense      : Maximize
Variables            :   54741  [Nneg: 1,  Box: 22728,  Free: 4464,
                                 Binary: 27548]
Objective nonzeros   :    9703
Linear constraints   :  123829  [Less: 41554,  Greater: 59512,  Equal: 22763]
  Nonzeros           :  300596
  RHS nonzeros       :   67904

Variables            : Min LB: -5000.000        Max UB: 1000000.       
Objective nonzeros   : Min   : 0.008333333      Max   : 828.4750       
Linear constraints   :
  Nonzeros           : Min   : 0.001000000      Max   : 1000000.       
  RHS nonzeros       : Min   : 0.008333333      Max   : 1000000.       
CPLEX> CPXPARAM_Simplex_Tolerances_Feasibility          0.01
CPXPARAM_Parallel                                -1
CPXPARAM_DetTimeLimit                            75000
CPXPARAM_MIP_Tolerances_MIPGap                   0.01
CPXPARAM_MIP_Tolerances_Integrality              1.0000000000000001e-09
Warning:  No solution found from 1 MIP starts.
Retaining values of one MIP start for possible repair.
Tried aggregator 3 times.
MIP Presolve eliminated 89277 rows and 19892 columns.
MIP Presolve added 3398 rows and 0 columns.
MIP Presolve modified 23910 coefficients.
Aggregator did 13056 substitutions.
Reduced MIP has 24894 rows, 21240 columns, and 71058 nonzeros.
Reduced MIP has 8406 binaries, 0 generals, 0 SOSs, and 0 indicators.
Presolve time = 0.30 sec. (167.55 ticks)
Probing fixed 380 vars, tightened 2832 bounds.
Probing time = 3.11 sec. (883.52 ticks)
Tried aggregator 2 times.
MIP Presolve eliminated 859 rows and 760 columns.
MIP Presolve modified 2193 coefficients.
Aggregator did 33 substitutions.
Reduced MIP has 24002 rows, 20447 columns, and 68481 nonzeros.
Reduced MIP has 8026 binaries, 0 generals, 0 SOSs, and 0 indicators.
Presolve time = 0.14 sec. (54.23 ticks)
Probing time = 0.05 sec. (16.15 ticks)
Clique table members: 6346.
MIP emphasis: balance optimality and feasibility.
MIP search method: dynamic search.
Parallel mode: opportunistic, using up to 4 threads.
Root relaxation solution time = 0.50 sec. (492.62 ticks)

        Nodes                                         Cuts/
   Node  Left     Objective  IInf  Best Integer    Best Bound    ItCnt     Gap

      0     0     2284.9773   701                   2284.9773     3227         
      0     0     2284.9773    14                    Cuts: 11     3232         
      0     0     2284.9773    13                     Cuts: 5     3236         
      0     0     2284.9773     7                     Cuts: 3     3239         
Repair heuristic found nothing.
      0     3    infeasible                         2271.8331     3406         
Elapsed time = 21.45 sec. (7771.29 ticks, tree = 0.02 MB, solutions = 0)
    101     9    infeasible                         2263.2048     6187         
    204    13    infeasible                         2263.2048     9193         
    290    61    -9679.2228     5                   2263.2048    10460         
    387    97    infeasible                         2263.2048    12239         
*   452    96      integral     0     2263.2048     2263.2048    14509    0.00%
    461   109  -271874.1658    18     2263.2048     2263.2048    14505    0.00%

Clique cuts applied:  1
Implied bound cuts applied:  14
Flow cuts applied:  9
Gomory fractional cuts applied:  6

Root node processing (before b&c):
  Real time             =   21.30 sec. (7758.96 ticks)
Parallel b&c, 4 threads:
  Real time             =    2.53 sec. (1403.69 ticks)
  Sync time (average)   =    0.10 sec.
  Wait time (average)   =    0.02 sec.
                          ------------
Total (root+branch&cut) =   23.83 sec. (9162.65 ticks)

Solution pool: 2 solutions saved.

MIP - Integer optimal solution:  Objective =  2.2632048319e+03
Solution time =   23.83 sec.  Iterations = 15119  Nodes = 475
Deterministic time = 9162.81 ticks  (384.54 ticks/sec)

CPLEX> Incumbent solution written to file 'C:\Users\llavi\Desktop\test919\logs\tmp3f003jml.cplex.sol'.
CPLEX> Exporting results... 
